(declare-const delta_n Int)
(declare-const delta___cost Int)
(declare-const delta_tmp Int)
(assert (exists
         ((|n'?1| Int) (|tmp'?2| Int) (|__cost'?3| Int) (havoc?4 Int)
            (tmp?5 Int) (n?6 Int) (__cost?7 Int))
         (and (<= (- n?6) 0) (< (- n?6) 0) (<= (- __cost?7) 0)
                (<= (+ (- __cost?7) -1) 0) (= havoc?4 0)
                (= (+ |n'?1| (- n?6) 1) 0) (= (+ |tmp'?2| (- havoc?4)) 0)
                (= (+ |__cost'?3| (- __cost?7) -1) 0)
                (= delta___cost (+ |__cost'?3| (- __cost?7)))
                (= delta_tmp (+ |tmp'?2| (- tmp?5)))
                (= delta_n (+ |n'?1| (- n?6))))))
(check-sat)
